100
32
21
21
17
27
16
5
20
5
1
27
18
28
18
18
20
20
2
24
1
3
1
6
4
29
23
21
7
22
2
1
10
22
24
1
10
24
18
28
3
22
7
22
22
22
23
8
1
30
2
8
12
13
1
13
22
22
11
4
22
2
10
23
2
14
11
2
16
11
1
12
3
4
2
24
7
12
10
11
10
15
3
11
2
11
29
24
11
3
27
13
8
22
10
15
20
9
2
1
27
15